NAME :ulysses16.reord.tsp
TYPE : TSP
COMMENT : Odyssey of Ulysses (Groetschel/Padberg)
DIMENSION : 16
EDGE_WEIGHT_TYPE : GEO
DISPLAY_DATA_TYPE : COORD_DISPLAY
TOUR_SECTION
11 36.08 -5.21
5 33.48 10.54
15 35.49 14.32
6 37.56 12.19
7 38.42 13.11
9 41.23 9.1
10 41.17 13.05
12 38.47 15.13
13 38.15 15.35
14 37.51 15.17
16 39.36 19.56
1 38.24 20.42
8 37.52 20.44
4 36.26 23.12
3 40.56 25.32
2 39.57 26.15
11 36.08 -5.21
-1